g3 0 1 0	# problem ex8_3_9
 78 45 1 0 45	# vars, constraints, objectives, ranges, eqns
 27 0	# nonlinear constraints, objectives
 0 0	# network constraints: nonlinear, linear
 73 0 0	# nonlinear vars in constraints, objectives, both
 0 0 0 1	# linear network variables; functions; arith, flags
 0 0 0 0 0	# discrete variables: binary, integer, nonlinear (b,c,o)
 325 1	# nonzeros in Jacobian, gradients
 0 0	# max name lengths: constraints, variables
 0 0 0 0 0	# common exprs: b,c,o,c1,o1
b
0 0 1000
0 0 1000
0 0 1000
0 0 1000
0 0 1000
0 0 10
0 0 10
0 0 10
0 0 10
0 0 10
0 0 10
0 0 10
0 0 10
0 0 10
0 0 10
0 0 1000
0 0 1000
0 0 1000
0 0 1000
0 0 1000
0 0 10
0 0 10
0 0 10
0 0 10
0 0 10
0 0 10
0 0 10
0 0 10
0 0 10
0 0 10
0 0 1000
0 0 1000
0 0 1000
0 0 1000
0 0 1000
0 0 1000
0 0 1000
0 0 1000
0 0 1000
0 0 1000
0 0 1000
0 0 1000
0 0 1000
0 0 1000
0 0 1000
0 0 1000
0 0 1000
0 0 1000
0 0 1000
0 0 1000
0 0 1000
0 0 1000
0 0 1000
0 0 1000
0 0 1000
0 0 1000
0 0 1000
0 0 1000
0 0 1000
0 0 1000
0 0 1000
0 0 10
0 0 10
0 0 10000
0 0 10000
0 0 10000
0 0 10000
0 0 10000
0 0 10000
0 0 10000
0 0 10000
0 0 10000
0 0 10000
0 0 1000
0 0 1000
0 0 1000
0 0 1000
0 0 1000
x73
0 50
1 50
2 50
3 50
4 50
5 0.2
6 0.2
7 0.2
8 0.2
9 0.2
10 0.2
11 0.2
12 0.2
13 0.2
14 0.2
15 100
16 100
17 100
18 100
19 100
20 0.2
21 0.2
22 0.2
23 0.2
24 0.2
25 0.2
26 0.2
27 0.2
28 0.2
29 0.2
30 50
31 50
32 50
33 50
34 50
35 50
36 50
37 50
38 50
39 50
40 50
41 50
42 50
43 50
44 50
45 50
46 50
47 50
48 50
49 50
50 50
51 50
52 50
53 50
54 50
55 50
56 50
57 50
58 50
59 50
60 100
61 0.2
62 0.2
63 1
64 1
65 1
66 1
67 1
73 50
74 50
75 50
76 50
77 50
r
4 0
4 0
4 0
4 0
4 0
4 0
4 0
4 0
4 0
4 0
4 0
4 0
4 0
4 0
4 0
4 0
4 0
4 0
4 0
4 0
4 0
4 0
4 0
4 0
4 0
4 0
4 0
4 -100
4 0
4 0
4 0
4 0
4 0
4 0
4 0
4 0
4 0
4 0
4 0
4 0
4 0
4 0
4 0
4 0
4 100
C0
o16
o54
6
o16
o2
v5
v0
o2
v20
v30
o2
v22
v35
o2
v24
v40
o2
v26
v45
o2
v28
v50
C1
o16
o54
6
o16
o2
v6
v0
o2
v21
v30
o2
v23
v35
o2
v25
v40
o2
v27
v45
o2
v29
v50
C2
o16
o54
6
o16
o2
v7
v1
o2
v20
v31
o2
v22
v36
o2
v24
v41
o2
v26
v46
o2
v28
v51
C3
o16
o54
6
o16
o2
v8
v1
o2
v21
v31
o2
v23
v36
o2
v25
v41
o2
v27
v46
o2
v29
v51
C4
o16
o54
6
o16
o2
v9
v2
o2
v20
v32
o2
v22
v37
o2
v24
v42
o2
v26
v47
o2
v28
v52
C5
o16
o54
6
o16
o2
v10
v2
o2
v21
v32
o2
v23
v37
o2
v25
v42
o2
v27
v47
o2
v29
v52
C6
o16
o54
6
o16
o2
v11
v3
o2
v20
v33
o2
v22
v38
o2
v24
v43
o2
v26
v48
o2
v28
v53
C7
o16
o54
6
o16
o2
v12
v3
o2
v21
v33
o2
v23
v38
o2
v25
v43
o2
v27
v48
o2
v29
v53
C8
o16
o54
6
o16
o2
v13
v4
o2
v20
v34
o2
v22
v39
o2
v24
v44
o2
v26
v49
o2
v28
v54
C9
o16
o54
6
o16
o2
v14
v4
o2
v21
v34
o2
v23
v39
o2
v25
v44
o2
v27
v49
o2
v29
v54
C10
o54
3
o2
v20
v15
o16
o2
v5
v0
o2
v63
v68
C11
o54
3
o2
v21
v15
o16
o2
v6
v0
o16
o2
v63
v68
C12
o54
3
o2
v22
v16
o16
o2
v7
v1
o2
v64
v69
C13
o54
3
o2
v23
v16
o16
o2
v8
v1
o16
o2
v64
v69
C14
o54
3
o2
v24
v17
o16
o2
v9
v2
o2
v65
v70
C15
o54
3
o2
v25
v17
o16
o2
v10
v2
o16
o2
v65
v70
C16
o54
3
o2
v26
v18
o16
o2
v11
v3
o2
v66
v71
C17
o54
3
o2
v27
v18
o16
o2
v12
v3
o16
o2
v66
v71
C18
o54
3
o2
v28
v19
o16
o2
v13
v4
o2
v67
v72
C19
o54
3
o2
v29
v19
o16
o2
v14
v4
o16
o2
v67
v72
C20
o16
o2
v20
v21
C21
o16
o2
v22
v23
C22
o16
o2
v24
v25
C23
o16
o2
v26
v27
C24
o16
o2
v28
v29
C25
o16
o54
6
o16
o2
v60
v61
o2
v55
v20
o2
v56
v22
o2
v57
v24
o2
v58
v26
o2
v59
v28
C26
o16
o54
6
o16
o2
v60
v62
o2
v55
v21
o2
v56
v23
o2
v57
v25
o2
v58
v27
o2
v59
v29
C27
n0
C28
n0
C29
n0
C30
n0
C31
n0
C32
n0
C33
n0
C34
n0
C35
n0
C36
n0
C37
n0
C38
n0
C39
n0
C40
n0
C41
n0
C42
n0
C43
n0
C44
n0
O0 0
n0
k77
6
12
18
24
30
32
34
36
38
40
42
44
46
48
50
54
58
62
66
70
78
86
94
102
110
118
126
134
142
150
154
158
162
166
170
174
178
182
186
190
194
198
202
206
210
214
218
222
226
230
234
238
242
246
250
254
258
262
266
270
273
274
275
278
281
284
287
290
293
296
299
302
305
309
313
317
321
J0 13
0 0
5 0
20 0
22 0
24 0
26 0
28 0
30 0
35 0
40 0
45 0
50 0
73 -0.45
J1 13
0 0
6 0
21 0
23 0
25 0
27 0
29 0
30 0
35 0
40 0
45 0
50 0
73 -0.55
J2 13
1 0
7 0
20 0
22 0
24 0
26 0
28 0
31 0
36 0
41 0
46 0
51 0
74 -0.45
J3 13
1 0
8 0
21 0
23 0
25 0
27 0
29 0
31 0
36 0
41 0
46 0
51 0
74 -0.55
J4 13
2 0
9 0
20 0
22 0
24 0
26 0
28 0
32 0
37 0
42 0
47 0
52 0
75 -0.45
J5 13
2 0
10 0
21 0
23 0
25 0
27 0
29 0
32 0
37 0
42 0
47 0
52 0
75 -0.55
J6 13
3 0
11 0
20 0
22 0
24 0
26 0
28 0
33 0
38 0
43 0
48 0
53 0
76 -0.45
J7 13
3 0
12 0
21 0
23 0
25 0
27 0
29 0
33 0
38 0
43 0
48 0
53 0
76 -0.55
J8 13
4 0
13 0
20 0
22 0
24 0
26 0
28 0
34 0
39 0
44 0
49 0
54 0
77 -0.45
J9 13
4 0
14 0
21 0
23 0
25 0
27 0
29 0
34 0
39 0
44 0
49 0
54 0
77 -0.55
J10 6
0 0
5 0
15 0
20 0
63 0
68 0
J11 6
0 0
6 0
15 0
21 0
63 0
68 0
J12 6
1 0
7 0
16 0
22 0
64 0
69 0
J13 6
1 0
8 0
16 0
23 0
64 0
69 0
J14 6
2 0
9 0
17 0
24 0
65 0
70 0
J15 6
2 0
10 0
17 0
25 0
65 0
70 0
J16 6
3 0
11 0
18 0
26 0
66 0
71 0
J17 6
3 0
12 0
18 0
27 0
66 0
71 0
J18 6
4 0
13 0
19 0
28 0
67 0
72 0
J19 6
4 0
14 0
19 0
29 0
67 0
72 0
J20 3
20 0
21 0
68 1
J21 3
22 0
23 0
69 1
J22 3
24 0
25 0
70 1
J23 3
26 0
27 0
71 1
J24 3
28 0
29 0
72 1
J25 12
20 0
22 0
24 0
26 0
28 0
55 0
56 0
57 0
58 0
59 0
60 0
61 0
J26 12
21 0
23 0
25 0
27 0
29 0
55 0
56 0
57 0
58 0
59 0
60 0
62 0
J27 5
73 -1
74 -1
75 -1
76 -1
77 -1
J28 7
0 1
30 -1
35 -1
40 -1
45 -1
50 -1
73 -1
J29 7
1 1
31 -1
36 -1
41 -1
46 -1
51 -1
74 -1
J30 7
2 1
32 -1
37 -1
42 -1
47 -1
52 -1
75 -1
J31 7
3 1
33 -1
38 -1
43 -1
48 -1
53 -1
76 -1
J32 7
4 1
34 -1
39 -1
44 -1
49 -1
54 -1
77 -1
J33 2
0 -1
15 1
J34 2
1 -1
16 1
J35 2
2 -1
17 1
J36 2
3 -1
18 1
J37 2
4 -1
19 1
J38 7
15 1
30 -1
31 -1
32 -1
33 -1
34 -1
55 -1
J39 7
16 1
35 -1
36 -1
37 -1
38 -1
39 -1
56 -1
J40 7
17 1
40 -1
41 -1
42 -1
43 -1
44 -1
57 -1
J41 7
18 1
45 -1
46 -1
47 -1
48 -1
49 -1
58 -1
J42 7
19 1
50 -1
51 -1
52 -1
53 -1
54 -1
59 -1
J43 6
55 -1
56 -1
57 -1
58 -1
59 -1
60 1
J44 5
63 1
64 1
65 1
66 1
67 1
G0 1
62 -1
